c User generated cnf file
p cnf 9 21
2 9 -9 0 
3 -4 6 0 
-4 7 9 0 
-1 5 4 0 
1 -1 6 0 
8 3 -6 0 
4 -5 9 0 
1 2 -9 0 
1 6 -9 0 
1 -6 9 0 
3 -1 1 0 
4 -5 6 0 
-2 2 3 0 
3 8 -8 0 
9 7 -6 0 
7 7 -2 0 
6 -1 7 0 
1 -7 2 0 
1 4 -4 0 
7 3 -4 0 
-4 1 3 0 
